DATASET = "thpack1";
INSTANCE = "054";

WIDTH = 233;
HEIGHT = 220;
LENGTH = 587;

NO_OF_SHAPES = 3;
size = [|
  99,68,23 |
  68,52,40 |
  101,66,61 |
|];

verticality = [|
  0,0,1 |
  1,1,1 |
  1,1,1 |
|];

box_count = [
  54,
  53,
  35,
];
